12
0 100 40 68 96 24 12 37 75 57 18 26 
100 0 49 83 6 78 44 75 46 92 75 84 
40 49 0 7 92 65 84 86 86 64 49 63 
68 83 7 0 20 35 83 95 64 43 31 92 
96 6 92 20 0 14 89 42 65 94 75 54 
24 78 65 35 14 0 57 1 13 76 33 45 
12 44 84 83 89 57 0 41 77 85 29 83 
37 75 86 95 42 1 41 0 58 27 42 73 
75 46 86 64 65 13 77 58 0 81 45 24 
57 92 64 43 94 76 85 27 81 0 99 2 
18 75 49 31 75 33 29 42 45 99 0 37 
26 84 63 92 54 45 83 73 24 2 37 0 
RBBRBRRBBRRB
